
<instance format="XCSP3" type="CSP">
  <constraints>
    <element id="c1">
      <list> s1 s2 s3 </list>
      <index> i </index>
      <value> t </value>
    </element>
    <element id="c2">
      <list> t1 t2 t3 t4 </list>
      <value> t5 </value>
    </element>
  </constraints>
</instance>
